set T := Jan Feb Mar Apr May Jun;

set V := VEG1 VEG2;
set N := OIL1 OIL2 OIL3;

param p: Jan Feb Mar Apr May Jun :=
VEG1  110 130 110 120 100  90
VEG2  120 130 140 110 120 100
OIL1  130 110 130 120 150 140
OIL2  110  90 100 120 110  80
OIL3  115 115  95 125 105 135;

param h :=
VEG1 8.8
VEG2 6.1
OIL1 2.0
OIL2 4.2
OIL3 5.0;

param r := 150;
param s := 5;
param Cv := 200;
param Cn := 250;
param Smax := 1000;
param S0 := 500;
param hmin := 3;
param hmax := 6;

